c created by edge2cnf
p cnf 500 3100
-1 -2 0
-1 -3 0
-1 -4 0
-1 -5 0
-2 -3 0
-2 -4 0
-2 -5 0
-3 -4 0
-3 -5 0
-4 -5 0
1 2 3 4 5 0
-6 -7 0
-6 -8 0
-6 -9 0
-6 -10 0
-7 -8 0
-7 -9 0
-7 -10 0
-8 -9 0
-8 -10 0
-9 -10 0
6 7 8 9 10 0
-11 -12 0
-11 -13 0
-11 -14 0
-11 -15 0
-12 -13 0
-12 -14 0
-12 -15 0
-13 -14 0
-13 -15 0
-14 -15 0
11 12 13 14 15 0
-16 -17 0
-16 -18 0
-16 -19 0
-16 -20 0
-17 -18 0
-17 -19 0
-17 -20 0
-18 -19 0
-18 -20 0
-19 -20 0
16 17 18 19 20 0
-21 -22 0
-21 -23 0
-21 -24 0
-21 -25 0
-22 -23 0
-22 -24 0
-22 -25 0
-23 -24 0
-23 -25 0
-24 -25 0
21 22 23 24 25 0
-26 -27 0
-26 -28 0
-26 -29 0
-26 -30 0
-27 -28 0
-27 -29 0
-27 -30 0
-28 -29 0
-28 -30 0
-29 -30 0
26 27 28 29 30 0
-31 -32 0
-31 -33 0
-31 -34 0
-31 -35 0
-32 -33 0
-32 -34 0
-32 -35 0
-33 -34 0
-33 -35 0
-34 -35 0
31 32 33 34 35 0
-36 -37 0
-36 -38 0
-36 -39 0
-36 -40 0
-37 -38 0
-37 -39 0
-37 -40 0
-38 -39 0
-38 -40 0
-39 -40 0
36 37 38 39 40 0
-41 -42 0
-41 -43 0
-41 -44 0
-41 -45 0
-42 -43 0
-42 -44 0
-42 -45 0
-43 -44 0
-43 -45 0
-44 -45 0
41 42 43 44 45 0
-46 -47 0
-46 -48 0
-46 -49 0
-46 -50 0
-47 -48 0
-47 -49 0
-47 -50 0
-48 -49 0
-48 -50 0
-49 -50 0
46 47 48 49 50 0
-51 -52 0
-51 -53 0
-51 -54 0
-51 -55 0
-52 -53 0
-52 -54 0
-52 -55 0
-53 -54 0
-53 -55 0
-54 -55 0
51 52 53 54 55 0
-56 -57 0
-56 -58 0
-56 -59 0
-56 -60 0
-57 -58 0
-57 -59 0
-57 -60 0
-58 -59 0
-58 -60 0
-59 -60 0
56 57 58 59 60 0
-61 -62 0
-61 -63 0
-61 -64 0
-61 -65 0
-62 -63 0
-62 -64 0
-62 -65 0
-63 -64 0
-63 -65 0
-64 -65 0
61 62 63 64 65 0
-66 -67 0
-66 -68 0
-66 -69 0
-66 -70 0
-67 -68 0
-67 -69 0
-67 -70 0
-68 -69 0
-68 -70 0
-69 -70 0
66 67 68 69 70 0
-71 -72 0
-71 -73 0
-71 -74 0
-71 -75 0
-72 -73 0
-72 -74 0
-72 -75 0
-73 -74 0
-73 -75 0
-74 -75 0
71 72 73 74 75 0
-76 -77 0
-76 -78 0
-76 -79 0
-76 -80 0
-77 -78 0
-77 -79 0
-77 -80 0
-78 -79 0
-78 -80 0
-79 -80 0
76 77 78 79 80 0
-81 -82 0
-81 -83 0
-81 -84 0
-81 -85 0
-82 -83 0
-82 -84 0
-82 -85 0
-83 -84 0
-83 -85 0
-84 -85 0
81 82 83 84 85 0
-86 -87 0
-86 -88 0
-86 -89 0
-86 -90 0
-87 -88 0
-87 -89 0
-87 -90 0
-88 -89 0
-88 -90 0
-89 -90 0
86 87 88 89 90 0
-91 -92 0
-91 -93 0
-91 -94 0
-91 -95 0
-92 -93 0
-92 -94 0
-92 -95 0
-93 -94 0
-93 -95 0
-94 -95 0
91 92 93 94 95 0
-96 -97 0
-96 -98 0
-96 -99 0
-96 -100 0
-97 -98 0
-97 -99 0
-97 -100 0
-98 -99 0
-98 -100 0
-99 -100 0
96 97 98 99 100 0
-101 -102 0
-101 -103 0
-101 -104 0
-101 -105 0
-102 -103 0
-102 -104 0
-102 -105 0
-103 -104 0
-103 -105 0
-104 -105 0
101 102 103 104 105 0
-106 -107 0
-106 -108 0
-106 -109 0
-106 -110 0
-107 -108 0
-107 -109 0
-107 -110 0
-108 -109 0
-108 -110 0
-109 -110 0
106 107 108 109 110 0
-111 -112 0
-111 -113 0
-111 -114 0
-111 -115 0
-112 -113 0
-112 -114 0
-112 -115 0
-113 -114 0
-113 -115 0
-114 -115 0
111 112 113 114 115 0
-116 -117 0
-116 -118 0
-116 -119 0
-116 -120 0
-117 -118 0
-117 -119 0
-117 -120 0
-118 -119 0
-118 -120 0
-119 -120 0
116 117 118 119 120 0
-121 -122 0
-121 -123 0
-121 -124 0
-121 -125 0
-122 -123 0
-122 -124 0
-122 -125 0
-123 -124 0
-123 -125 0
-124 -125 0
121 122 123 124 125 0
-126 -127 0
-126 -128 0
-126 -129 0
-126 -130 0
-127 -128 0
-127 -129 0
-127 -130 0
-128 -129 0
-128 -130 0
-129 -130 0
126 127 128 129 130 0
-131 -132 0
-131 -133 0
-131 -134 0
-131 -135 0
-132 -133 0
-132 -134 0
-132 -135 0
-133 -134 0
-133 -135 0
-134 -135 0
131 132 133 134 135 0
-136 -137 0
-136 -138 0
-136 -139 0
-136 -140 0
-137 -138 0
-137 -139 0
-137 -140 0
-138 -139 0
-138 -140 0
-139 -140 0
136 137 138 139 140 0
-141 -142 0
-141 -143 0
-141 -144 0
-141 -145 0
-142 -143 0
-142 -144 0
-142 -145 0
-143 -144 0
-143 -145 0
-144 -145 0
141 142 143 144 145 0
-146 -147 0
-146 -148 0
-146 -149 0
-146 -150 0
-147 -148 0
-147 -149 0
-147 -150 0
-148 -149 0
-148 -150 0
-149 -150 0
146 147 148 149 150 0
-151 -152 0
-151 -153 0
-151 -154 0
-151 -155 0
-152 -153 0
-152 -154 0
-152 -155 0
-153 -154 0
-153 -155 0
-154 -155 0
151 152 153 154 155 0
-156 -157 0
-156 -158 0
-156 -159 0
-156 -160 0
-157 -158 0
-157 -159 0
-157 -160 0
-158 -159 0
-158 -160 0
-159 -160 0
156 157 158 159 160 0
-161 -162 0
-161 -163 0
-161 -164 0
-161 -165 0
-162 -163 0
-162 -164 0
-162 -165 0
-163 -164 0
-163 -165 0
-164 -165 0
161 162 163 164 165 0
-166 -167 0
-166 -168 0
-166 -169 0
-166 -170 0
-167 -168 0
-167 -169 0
-167 -170 0
-168 -169 0
-168 -170 0
-169 -170 0
166 167 168 169 170 0
-171 -172 0
-171 -173 0
-171 -174 0
-171 -175 0
-172 -173 0
-172 -174 0
-172 -175 0
-173 -174 0
-173 -175 0
-174 -175 0
171 172 173 174 175 0
-176 -177 0
-176 -178 0
-176 -179 0
-176 -180 0
-177 -178 0
-177 -179 0
-177 -180 0
-178 -179 0
-178 -180 0
-179 -180 0
176 177 178 179 180 0
-181 -182 0
-181 -183 0
-181 -184 0
-181 -185 0
-182 -183 0
-182 -184 0
-182 -185 0
-183 -184 0
-183 -185 0
-184 -185 0
181 182 183 184 185 0
-186 -187 0
-186 -188 0
-186 -189 0
-186 -190 0
-187 -188 0
-187 -189 0
-187 -190 0
-188 -189 0
-188 -190 0
-189 -190 0
186 187 188 189 190 0
-191 -192 0
-191 -193 0
-191 -194 0
-191 -195 0
-192 -193 0
-192 -194 0
-192 -195 0
-193 -194 0
-193 -195 0
-194 -195 0
191 192 193 194 195 0
-196 -197 0
-196 -198 0
-196 -199 0
-196 -200 0
-197 -198 0
-197 -199 0
-197 -200 0
-198 -199 0
-198 -200 0
-199 -200 0
196 197 198 199 200 0
-201 -202 0
-201 -203 0
-201 -204 0
-201 -205 0
-202 -203 0
-202 -204 0
-202 -205 0
-203 -204 0
-203 -205 0
-204 -205 0
201 202 203 204 205 0
-206 -207 0
-206 -208 0
-206 -209 0
-206 -210 0
-207 -208 0
-207 -209 0
-207 -210 0
-208 -209 0
-208 -210 0
-209 -210 0
206 207 208 209 210 0
-211 -212 0
-211 -213 0
-211 -214 0
-211 -215 0
-212 -213 0
-212 -214 0
-212 -215 0
-213 -214 0
-213 -215 0
-214 -215 0
211 212 213 214 215 0
-216 -217 0
-216 -218 0
-216 -219 0
-216 -220 0
-217 -218 0
-217 -219 0
-217 -220 0
-218 -219 0
-218 -220 0
-219 -220 0
216 217 218 219 220 0
-221 -222 0
-221 -223 0
-221 -224 0
-221 -225 0
-222 -223 0
-222 -224 0
-222 -225 0
-223 -224 0
-223 -225 0
-224 -225 0
221 222 223 224 225 0
-226 -227 0
-226 -228 0
-226 -229 0
-226 -230 0
-227 -228 0
-227 -229 0
-227 -230 0
-228 -229 0
-228 -230 0
-229 -230 0
226 227 228 229 230 0
-231 -232 0
-231 -233 0
-231 -234 0
-231 -235 0
-232 -233 0
-232 -234 0
-232 -235 0
-233 -234 0
-233 -235 0
-234 -235 0
231 232 233 234 235 0
-236 -237 0
-236 -238 0
-236 -239 0
-236 -240 0
-237 -238 0
-237 -239 0
-237 -240 0
-238 -239 0
-238 -240 0
-239 -240 0
236 237 238 239 240 0
-241 -242 0
-241 -243 0
-241 -244 0
-241 -245 0
-242 -243 0
-242 -244 0
-242 -245 0
-243 -244 0
-243 -245 0
-244 -245 0
241 242 243 244 245 0
-246 -247 0
-246 -248 0
-246 -249 0
-246 -250 0
-247 -248 0
-247 -249 0
-247 -250 0
-248 -249 0
-248 -250 0
-249 -250 0
246 247 248 249 250 0
-251 -252 0
-251 -253 0
-251 -254 0
-251 -255 0
-252 -253 0
-252 -254 0
-252 -255 0
-253 -254 0
-253 -255 0
-254 -255 0
251 252 253 254 255 0
-256 -257 0
-256 -258 0
-256 -259 0
-256 -260 0
-257 -258 0
-257 -259 0
-257 -260 0
-258 -259 0
-258 -260 0
-259 -260 0
256 257 258 259 260 0
-261 -262 0
-261 -263 0
-261 -264 0
-261 -265 0
-262 -263 0
-262 -264 0
-262 -265 0
-263 -264 0
-263 -265 0
-264 -265 0
261 262 263 264 265 0
-266 -267 0
-266 -268 0
-266 -269 0
-266 -270 0
-267 -268 0
-267 -269 0
-267 -270 0
-268 -269 0
-268 -270 0
-269 -270 0
266 267 268 269 270 0
-271 -272 0
-271 -273 0
-271 -274 0
-271 -275 0
-272 -273 0
-272 -274 0
-272 -275 0
-273 -274 0
-273 -275 0
-274 -275 0
271 272 273 274 275 0
-276 -277 0
-276 -278 0
-276 -279 0
-276 -280 0
-277 -278 0
-277 -279 0
-277 -280 0
-278 -279 0
-278 -280 0
-279 -280 0
276 277 278 279 280 0
-281 -282 0
-281 -283 0
-281 -284 0
-281 -285 0
-282 -283 0
-282 -284 0
-282 -285 0
-283 -284 0
-283 -285 0
-284 -285 0
281 282 283 284 285 0
-286 -287 0
-286 -288 0
-286 -289 0
-286 -290 0
-287 -288 0
-287 -289 0
-287 -290 0
-288 -289 0
-288 -290 0
-289 -290 0
286 287 288 289 290 0
-291 -292 0
-291 -293 0
-291 -294 0
-291 -295 0
-292 -293 0
-292 -294 0
-292 -295 0
-293 -294 0
-293 -295 0
-294 -295 0
291 292 293 294 295 0
-296 -297 0
-296 -298 0
-296 -299 0
-296 -300 0
-297 -298 0
-297 -299 0
-297 -300 0
-298 -299 0
-298 -300 0
-299 -300 0
296 297 298 299 300 0
-301 -302 0
-301 -303 0
-301 -304 0
-301 -305 0
-302 -303 0
-302 -304 0
-302 -305 0
-303 -304 0
-303 -305 0
-304 -305 0
301 302 303 304 305 0
-306 -307 0
-306 -308 0
-306 -309 0
-306 -310 0
-307 -308 0
-307 -309 0
-307 -310 0
-308 -309 0
-308 -310 0
-309 -310 0
306 307 308 309 310 0
-311 -312 0
-311 -313 0
-311 -314 0
-311 -315 0
-312 -313 0
-312 -314 0
-312 -315 0
-313 -314 0
-313 -315 0
-314 -315 0
311 312 313 314 315 0
-316 -317 0
-316 -318 0
-316 -319 0
-316 -320 0
-317 -318 0
-317 -319 0
-317 -320 0
-318 -319 0
-318 -320 0
-319 -320 0
316 317 318 319 320 0
-321 -322 0
-321 -323 0
-321 -324 0
-321 -325 0
-322 -323 0
-322 -324 0
-322 -325 0
-323 -324 0
-323 -325 0
-324 -325 0
321 322 323 324 325 0
-326 -327 0
-326 -328 0
-326 -329 0
-326 -330 0
-327 -328 0
-327 -329 0
-327 -330 0
-328 -329 0
-328 -330 0
-329 -330 0
326 327 328 329 330 0
-331 -332 0
-331 -333 0
-331 -334 0
-331 -335 0
-332 -333 0
-332 -334 0
-332 -335 0
-333 -334 0
-333 -335 0
-334 -335 0
331 332 333 334 335 0
-336 -337 0
-336 -338 0
-336 -339 0
-336 -340 0
-337 -338 0
-337 -339 0
-337 -340 0
-338 -339 0
-338 -340 0
-339 -340 0
336 337 338 339 340 0
-341 -342 0
-341 -343 0
-341 -344 0
-341 -345 0
-342 -343 0
-342 -344 0
-342 -345 0
-343 -344 0
-343 -345 0
-344 -345 0
341 342 343 344 345 0
-346 -347 0
-346 -348 0
-346 -349 0
-346 -350 0
-347 -348 0
-347 -349 0
-347 -350 0
-348 -349 0
-348 -350 0
-349 -350 0
346 347 348 349 350 0
-351 -352 0
-351 -353 0
-351 -354 0
-351 -355 0
-352 -353 0
-352 -354 0
-352 -355 0
-353 -354 0
-353 -355 0
-354 -355 0
351 352 353 354 355 0
-356 -357 0
-356 -358 0
-356 -359 0
-356 -360 0
-357 -358 0
-357 -359 0
-357 -360 0
-358 -359 0
-358 -360 0
-359 -360 0
356 357 358 359 360 0
-361 -362 0
-361 -363 0
-361 -364 0
-361 -365 0
-362 -363 0
-362 -364 0
-362 -365 0
-363 -364 0
-363 -365 0
-364 -365 0
361 362 363 364 365 0
-366 -367 0
-366 -368 0
-366 -369 0
-366 -370 0
-367 -368 0
-367 -369 0
-367 -370 0
-368 -369 0
-368 -370 0
-369 -370 0
366 367 368 369 370 0
-371 -372 0
-371 -373 0
-371 -374 0
-371 -375 0
-372 -373 0
-372 -374 0
-372 -375 0
-373 -374 0
-373 -375 0
-374 -375 0
371 372 373 374 375 0
-376 -377 0
-376 -378 0
-376 -379 0
-376 -380 0
-377 -378 0
-377 -379 0
-377 -380 0
-378 -379 0
-378 -380 0
-379 -380 0
376 377 378 379 380 0
-381 -382 0
-381 -383 0
-381 -384 0
-381 -385 0
-382 -383 0
-382 -384 0
-382 -385 0
-383 -384 0
-383 -385 0
-384 -385 0
381 382 383 384 385 0
-386 -387 0
-386 -388 0
-386 -389 0
-386 -390 0
-387 -388 0
-387 -389 0
-387 -390 0
-388 -389 0
-388 -390 0
-389 -390 0
386 387 388 389 390 0
-391 -392 0
-391 -393 0
-391 -394 0
-391 -395 0
-392 -393 0
-392 -394 0
-392 -395 0
-393 -394 0
-393 -395 0
-394 -395 0
391 392 393 394 395 0
-396 -397 0
-396 -398 0
-396 -399 0
-396 -400 0
-397 -398 0
-397 -399 0
-397 -400 0
-398 -399 0
-398 -400 0
-399 -400 0
396 397 398 399 400 0
-401 -402 0
-401 -403 0
-401 -404 0
-401 -405 0
-402 -403 0
-402 -404 0
-402 -405 0
-403 -404 0
-403 -405 0
-404 -405 0
401 402 403 404 405 0
-406 -407 0
-406 -408 0
-406 -409 0
-406 -410 0
-407 -408 0
-407 -409 0
-407 -410 0
-408 -409 0
-408 -410 0
-409 -410 0
406 407 408 409 410 0
-411 -412 0
-411 -413 0
-411 -414 0
-411 -415 0
-412 -413 0
-412 -414 0
-412 -415 0
-413 -414 0
-413 -415 0
-414 -415 0
411 412 413 414 415 0
-416 -417 0
-416 -418 0
-416 -419 0
-416 -420 0
-417 -418 0
-417 -419 0
-417 -420 0
-418 -419 0
-418 -420 0
-419 -420 0
416 417 418 419 420 0
-421 -422 0
-421 -423 0
-421 -424 0
-421 -425 0
-422 -423 0
-422 -424 0
-422 -425 0
-423 -424 0
-423 -425 0
-424 -425 0
421 422 423 424 425 0
-426 -427 0
-426 -428 0
-426 -429 0
-426 -430 0
-427 -428 0
-427 -429 0
-427 -430 0
-428 -429 0
-428 -430 0
-429 -430 0
426 427 428 429 430 0
-431 -432 0
-431 -433 0
-431 -434 0
-431 -435 0
-432 -433 0
-432 -434 0
-432 -435 0
-433 -434 0
-433 -435 0
-434 -435 0
431 432 433 434 435 0
-436 -437 0
-436 -438 0
-436 -439 0
-436 -440 0
-437 -438 0
-437 -439 0
-437 -440 0
-438 -439 0
-438 -440 0
-439 -440 0
436 437 438 439 440 0
-441 -442 0
-441 -443 0
-441 -444 0
-441 -445 0
-442 -443 0
-442 -444 0
-442 -445 0
-443 -444 0
-443 -445 0
-444 -445 0
441 442 443 444 445 0
-446 -447 0
-446 -448 0
-446 -449 0
-446 -450 0
-447 -448 0
-447 -449 0
-447 -450 0
-448 -449 0
-448 -450 0
-449 -450 0
446 447 448 449 450 0
-451 -452 0
-451 -453 0
-451 -454 0
-451 -455 0
-452 -453 0
-452 -454 0
-452 -455 0
-453 -454 0
-453 -455 0
-454 -455 0
451 452 453 454 455 0
-456 -457 0
-456 -458 0
-456 -459 0
-456 -460 0
-457 -458 0
-457 -459 0
-457 -460 0
-458 -459 0
-458 -460 0
-459 -460 0
456 457 458 459 460 0
-461 -462 0
-461 -463 0
-461 -464 0
-461 -465 0
-462 -463 0
-462 -464 0
-462 -465 0
-463 -464 0
-463 -465 0
-464 -465 0
461 462 463 464 465 0
-466 -467 0
-466 -468 0
-466 -469 0
-466 -470 0
-467 -468 0
-467 -469 0
-467 -470 0
-468 -469 0
-468 -470 0
-469 -470 0
466 467 468 469 470 0
-471 -472 0
-471 -473 0
-471 -474 0
-471 -475 0
-472 -473 0
-472 -474 0
-472 -475 0
-473 -474 0
-473 -475 0
-474 -475 0
471 472 473 474 475 0
-476 -477 0
-476 -478 0
-476 -479 0
-476 -480 0
-477 -478 0
-477 -479 0
-477 -480 0
-478 -479 0
-478 -480 0
-479 -480 0
476 477 478 479 480 0
-481 -482 0
-481 -483 0
-481 -484 0
-481 -485 0
-482 -483 0
-482 -484 0
-482 -485 0
-483 -484 0
-483 -485 0
-484 -485 0
481 482 483 484 485 0
-486 -487 0
-486 -488 0
-486 -489 0
-486 -490 0
-487 -488 0
-487 -489 0
-487 -490 0
-488 -489 0
-488 -490 0
-489 -490 0
486 487 488 489 490 0
-491 -492 0
-491 -493 0
-491 -494 0
-491 -495 0
-492 -493 0
-492 -494 0
-492 -495 0
-493 -494 0
-493 -495 0
-494 -495 0
491 492 493 494 495 0
-496 -497 0
-496 -498 0
-496 -499 0
-496 -500 0
-497 -498 0
-497 -499 0
-497 -500 0
-498 -499 0
-498 -500 0
-499 -500 0
496 497 498 499 500 0
-1 -21 0
-2 -22 0
-3 -23 0
-4 -24 0
-5 -25 0
-16 -21 0
-17 -22 0
-18 -23 0
-19 -24 0
-20 -25 0
-31 -46 0
-32 -47 0
-33 -48 0
-34 -49 0
-35 -50 0
-41 -61 0
-42 -62 0
-43 -63 0
-44 -64 0
-45 -65 0
-56 -66 0
-57 -67 0
-58 -68 0
-59 -69 0
-60 -70 0
-66 -76 0
-67 -77 0
-68 -78 0
-69 -79 0
-70 -80 0
-66 -81 0
-67 -82 0
-68 -83 0
-69 -84 0
-70 -85 0
-86 -96 0
-87 -97 0
-88 -98 0
-89 -99 0
-90 -100 0
-101 -106 0
-102 -107 0
-103 -108 0
-104 -109 0
-105 -110 0
-116 -121 0
-117 -122 0
-118 -123 0
-119 -124 0
-120 -125 0
-116 -126 0
-117 -127 0
-118 -128 0
-119 -129 0
-120 -130 0
-121 -126 0
-122 -127 0
-123 -128 0
-124 -129 0
-125 -130 0
-136 -141 0
-137 -142 0
-138 -143 0
-139 -144 0
-140 -145 0
-136 -156 0
-137 -157 0
-138 -158 0
-139 -159 0
-140 -160 0
-141 -156 0
-142 -157 0
-143 -158 0
-144 -159 0
-145 -160 0
-166 -171 0
-167 -172 0
-168 -173 0
-169 -174 0
-170 -175 0
-171 -186 0
-172 -187 0
-173 -188 0
-174 -189 0
-175 -190 0
-181 -186 0
-182 -187 0
-183 -188 0
-184 -189 0
-185 -190 0
-186 -201 0
-187 -202 0
-188 -203 0
-189 -204 0
-190 -205 0
-211 -221 0
-212 -222 0
-213 -223 0
-214 -224 0
-215 -225 0
-211 -231 0
-212 -232 0
-213 -233 0
-214 -234 0
-215 -235 0
-216 -226 0
-217 -227 0
-218 -228 0
-219 -229 0
-220 -230 0
-246 -251 0
-247 -252 0
-248 -253 0
-249 -254 0
-250 -255 0
-286 -296 0
-287 -297 0
-288 -298 0
-289 -299 0
-290 -300 0
-316 -326 0
-317 -327 0
-318 -328 0
-319 -329 0
-320 -330 0
-321 -336 0
-322 -337 0
-323 -338 0
-324 -339 0
-325 -340 0
-331 -346 0
-332 -347 0
-333 -348 0
-334 -349 0
-335 -350 0
-346 -351 0
-347 -352 0
-348 -353 0
-349 -354 0
-350 -355 0
-356 -361 0
-357 -362 0
-358 -363 0
-359 -364 0
-360 -365 0
-376 -396 0
-377 -397 0
-378 -398 0
-379 -399 0
-380 -400 0
-386 -391 0
-387 -392 0
-388 -393 0
-389 -394 0
-390 -395 0
-386 -401 0
-387 -402 0
-388 -403 0
-389 -404 0
-390 -405 0
-456 -461 0
-457 -462 0
-458 -463 0
-459 -464 0
-460 -465 0
-456 -476 0
-457 -477 0
-458 -478 0
-459 -479 0
-460 -480 0
-476 -481 0
-477 -482 0
-478 -483 0
-479 -484 0
-480 -485 0
-486 -496 0
-487 -497 0
-488 -498 0
-489 -499 0
-490 -500 0
-1 -86 0
-2 -87 0
-3 -88 0
-4 -89 0
-5 -90 0
-1 -121 0
-2 -122 0
-3 -123 0
-4 -124 0
-5 -125 0
-1 -141 0
-2 -142 0
-3 -143 0
-4 -144 0
-5 -145 0
-1 -146 0
-2 -147 0
-3 -148 0
-4 -149 0
-5 -150 0
-1 -156 0
-2 -157 0
-3 -158 0
-4 -159 0
-5 -160 0
-1 -461 0
-2 -462 0
-3 -463 0
-4 -464 0
-5 -465 0
-6 -31 0
-7 -32 0
-8 -33 0
-9 -34 0
-10 -35 0
-6 -61 0
-7 -62 0
-8 -63 0
-9 -64 0
-10 -65 0
-6 -71 0
-7 -72 0
-8 -73 0
-9 -74 0
-10 -75 0
-6 -176 0
-7 -177 0
-8 -178 0
-9 -179 0
-10 -180 0
-6 -296 0
-7 -297 0
-8 -298 0
-9 -299 0
-10 -300 0
-6 -316 0
-7 -317 0
-8 -318 0
-9 -319 0
-10 -320 0
-6 -331 0
-7 -332 0
-8 -333 0
-9 -334 0
-10 -335 0
-6 -371 0
-7 -372 0
-8 -373 0
-9 -374 0
-10 -375 0
-11 -51 0
-12 -52 0
-13 -53 0
-14 -54 0
-15 -55 0
-11 -61 0
-12 -62 0
-13 -63 0
-14 -64 0
-15 -65 0
-11 -111 0
-12 -112 0
-13 -113 0
-14 -114 0
-15 -115 0
-11 -131 0
-12 -132 0
-13 -133 0
-14 -134 0
-15 -135 0
-11 -141 0
-12 -142 0
-13 -143 0
-14 -144 0
-15 -145 0
-11 -331 0
-12 -332 0
-13 -333 0
-14 -334 0
-15 -335 0
-11 -386 0
-12 -387 0
-13 -388 0
-14 -389 0
-15 -390 0
-11 -436 0
-12 -437 0
-13 -438 0
-14 -439 0
-15 -440 0
-11 -471 0
-12 -472 0
-13 -473 0
-14 -474 0
-15 -475 0
-16 -71 0
-17 -72 0
-18 -73 0
-19 -74 0
-20 -75 0
-16 -76 0
-17 -77 0
-18 -78 0
-19 -79 0
-20 -80 0
-16 -141 0
-17 -142 0
-18 -143 0
-19 -144 0
-20 -145 0
-16 -171 0
-17 -172 0
-18 -173 0
-19 -174 0
-20 -175 0
-16 -191 0
-17 -192 0
-18 -193 0
-19 -194 0
-20 -195 0
-16 -216 0
-17 -217 0
-18 -218 0
-19 -219 0
-20 -220 0
-16 -236 0
-17 -237 0
-18 -238 0
-19 -239 0
-20 -240 0
-16 -311 0
-17 -312 0
-18 -313 0
-19 -314 0
-20 -315 0
-16 -436 0
-17 -437 0
-18 -438 0
-19 -439 0
-20 -440 0
-16 -451 0
-17 -452 0
-18 -453 0
-19 -454 0
-20 -455 0
-21 -181 0
-22 -182 0
-23 -183 0
-24 -184 0
-25 -185 0
-21 -216 0
-22 -217 0
-23 -218 0
-24 -219 0
-25 -220 0
-21 -331 0
-22 -332 0
-23 -333 0
-24 -334 0
-25 -335 0
-21 -416 0
-22 -417 0
-23 -418 0
-24 -419 0
-25 -420 0
-21 -441 0
-22 -442 0
-23 -443 0
-24 -444 0
-25 -445 0
-26 -86 0
-27 -87 0
-28 -88 0
-29 -89 0
-30 -90 0
-26 -226 0
-27 -227 0
-28 -228 0
-29 -229 0
-30 -230 0
-26 -261 0
-27 -262 0
-28 -263 0
-29 -264 0
-30 -265 0
-26 -306 0
-27 -307 0
-28 -308 0
-29 -309 0
-30 -310 0
-26 -336 0
-27 -337 0
-28 -338 0
-29 -339 0
-30 -340 0
-31 -136 0
-32 -137 0
-33 -138 0
-34 -139 0
-35 -140 0
-31 -146 0
-32 -147 0
-33 -148 0
-34 -149 0
-35 -150 0
-31 -156 0
-32 -157 0
-33 -158 0
-34 -159 0
-35 -160 0
-31 -191 0
-32 -192 0
-33 -193 0
-34 -194 0
-35 -195 0
-31 -261 0
-32 -262 0
-33 -263 0
-34 -264 0
-35 -265 0
-31 -266 0
-32 -267 0
-33 -268 0
-34 -269 0
-35 -270 0
-31 -326 0
-32 -327 0
-33 -328 0
-34 -329 0
-35 -330 0
-31 -361 0
-32 -362 0
-33 -363 0
-34 -364 0
-35 -365 0
-31 -391 0
-32 -392 0
-33 -393 0
-34 -394 0
-35 -395 0
-36 -156 0
-37 -157 0
-38 -158 0
-39 -159 0
-40 -160 0
-36 -171 0
-37 -172 0
-38 -173 0
-39 -174 0
-40 -175 0
-36 -416 0
-37 -417 0
-38 -418 0
-39 -419 0
-40 -420 0
-36 -436 0
-37 -437 0
-38 -438 0
-39 -439 0
-40 -440 0
-41 -411 0
-42 -412 0
-43 -413 0
-44 -414 0
-45 -415 0
-41 -421 0
-42 -422 0
-43 -423 0
-44 -424 0
-45 -425 0
-41 -476 0
-42 -477 0
-43 -478 0
-44 -479 0
-45 -480 0
-46 -96 0
-47 -97 0
-48 -98 0
-49 -99 0
-50 -100 0
-46 -161 0
-47 -162 0
-48 -163 0
-49 -164 0
-50 -165 0
-46 -191 0
-47 -192 0
-48 -193 0
-49 -194 0
-50 -195 0
-46 -286 0
-47 -287 0
-48 -288 0
-49 -289 0
-50 -290 0
-46 -306 0
-47 -307 0
-48 -308 0
-49 -309 0
-50 -310 0
-51 -296 0
-52 -297 0
-53 -298 0
-54 -299 0
-55 -300 0
-51 -316 0
-52 -317 0
-53 -318 0
-54 -319 0
-55 -320 0
-51 -396 0
-52 -397 0
-53 -398 0
-54 -399 0
-55 -400 0
-51 -436 0
-52 -437 0
-53 -438 0
-54 -439 0
-55 -440 0
-51 -441 0
-52 -442 0
-53 -443 0
-54 -444 0
-55 -445 0
-51 -456 0
-52 -457 0
-53 -458 0
-54 -459 0
-55 -460 0
-51 -476 0
-52 -477 0
-53 -478 0
-54 -479 0
-55 -480 0
-56 -91 0
-57 -92 0
-58 -93 0
-59 -94 0
-60 -95 0
-56 -106 0
-57 -107 0
-58 -108 0
-59 -109 0
-60 -110 0
-56 -221 0
-57 -222 0
-58 -223 0
-59 -224 0
-60 -225 0
-56 -246 0
-57 -247 0
-58 -248 0
-59 -249 0
-60 -250 0
-56 -276 0
-57 -277 0
-58 -278 0
-59 -279 0
-60 -280 0
-56 -341 0
-57 -342 0
-58 -343 0
-59 -344 0
-60 -345 0
-56 -366 0
-57 -367 0
-58 -368 0
-59 -369 0
-60 -370 0
-56 -496 0
-57 -497 0
-58 -498 0
-59 -499 0
-60 -500 0
-61 -306 0
-62 -307 0
-63 -308 0
-64 -309 0
-65 -310 0
-61 -356 0
-62 -357 0
-63 -358 0
-64 -359 0
-65 -360 0
-61 -361 0
-62 -362 0
-63 -363 0
-64 -364 0
-65 -365 0
-61 -416 0
-62 -417 0
-63 -418 0
-64 -419 0
-65 -420 0
-61 -471 0
-62 -472 0
-63 -473 0
-64 -474 0
-65 -475 0
-66 -166 0
-67 -167 0
-68 -168 0
-69 -169 0
-70 -170 0
-66 -241 0
-67 -242 0
-68 -243 0
-69 -244 0
-70 -245 0
-66 -271 0
-67 -272 0
-68 -273 0
-69 -274 0
-70 -275 0
-66 -396 0
-67 -397 0
-68 -398 0
-69 -399 0
-70 -400 0
-71 -101 0
-72 -102 0
-73 -103 0
-74 -104 0
-75 -105 0
-71 -116 0
-72 -117 0
-73 -118 0
-74 -119 0
-75 -120 0
-71 -156 0
-72 -157 0
-73 -158 0
-74 -159 0
-75 -160 0
-71 -171 0
-72 -172 0
-73 -173 0
-74 -174 0
-75 -175 0
-71 -181 0
-72 -182 0
-73 -183 0
-74 -184 0
-75 -185 0
-71 -251 0
-72 -252 0
-73 -253 0
-74 -254 0
-75 -255 0
-71 -311 0
-72 -312 0
-73 -313 0
-74 -314 0
-75 -315 0
-71 -336 0
-72 -337 0
-73 -338 0
-74 -339 0
-75 -340 0
-71 -456 0
-72 -457 0
-73 -458 0
-74 -459 0
-75 -460 0
-71 -491 0
-72 -492 0
-73 -493 0
-74 -494 0
-75 -495 0
-76 -121 0
-77 -122 0
-78 -123 0
-79 -124 0
-80 -125 0
-76 -176 0
-77 -177 0
-78 -178 0
-79 -179 0
-80 -180 0
-76 -186 0
-77 -187 0
-78 -188 0
-79 -189 0
-80 -190 0
-76 -311 0
-77 -312 0
-78 -313 0
-79 -314 0
-80 -315 0
-76 -331 0
-77 -332 0
-78 -333 0
-79 -334 0
-80 -335 0
-81 -111 0
-82 -112 0
-83 -113 0
-84 -114 0
-85 -115 0
-81 -206 0
-82 -207 0
-83 -208 0
-84 -209 0
-85 -210 0
-81 -281 0
-82 -282 0
-83 -283 0
-84 -284 0
-85 -285 0
-81 -391 0
-82 -392 0
-83 -393 0
-84 -394 0
-85 -395 0
-81 -421 0
-82 -422 0
-83 -423 0
-84 -424 0
-85 -425 0
-86 -276 0
-87 -277 0
-88 -278 0
-89 -279 0
-90 -280 0
-86 -431 0
-87 -432 0
-88 -433 0
-89 -434 0
-90 -435 0
-86 -491 0
-87 -492 0
-88 -493 0
-89 -494 0
-90 -495 0
-91 -191 0
-92 -192 0
-93 -193 0
-94 -194 0
-95 -195 0
-91 -251 0
-92 -252 0
-93 -253 0
-94 -254 0
-95 -255 0
-91 -326 0
-92 -327 0
-93 -328 0
-94 -329 0
-95 -330 0
-91 -356 0
-92 -357 0
-93 -358 0
-94 -359 0
-95 -360 0
-91 -366 0
-92 -367 0
-93 -368 0
-94 -369 0
-95 -370 0
-91 -376 0
-92 -377 0
-93 -378 0
-94 -379 0
-95 -380 0
-91 -436 0
-92 -437 0
-93 -438 0
-94 -439 0
-95 -440 0
-91 -456 0
-92 -457 0
-93 -458 0
-94 -459 0
-95 -460 0
-91 -496 0
-92 -497 0
-93 -498 0
-94 -499 0
-95 -500 0
-96 -171 0
-97 -172 0
-98 -173 0
-99 -174 0
-100 -175 0
-96 -336 0
-97 -337 0
-98 -338 0
-99 -339 0
-100 -340 0
-96 -376 0
-97 -377 0
-98 -378 0
-99 -379 0
-100 -380 0
-101 -156 0
-102 -157 0
-103 -158 0
-104 -159 0
-105 -160 0
-101 -186 0
-102 -187 0
-103 -188 0
-104 -189 0
-105 -190 0
-101 -231 0
-102 -232 0
-103 -233 0
-104 -234 0
-105 -235 0
-101 -256 0
-102 -257 0
-103 -258 0
-104 -259 0
-105 -260 0
-101 -286 0
-102 -287 0
-103 -288 0
-104 -289 0
-105 -290 0
-101 -346 0
-102 -347 0
-103 -348 0
-104 -349 0
-105 -350 0
-101 -401 0
-102 -402 0
-103 -403 0
-104 -404 0
-105 -405 0
-106 -146 0
-107 -147 0
-108 -148 0
-109 -149 0
-110 -150 0
-106 -166 0
-107 -167 0
-108 -168 0
-109 -169 0
-110 -170 0
-106 -256 0
-107 -257 0
-108 -258 0
-109 -259 0
-110 -260 0
-106 -261 0
-107 -262 0
-108 -263 0
-109 -264 0
-110 -265 0
-106 -276 0
-107 -277 0
-108 -278 0
-109 -279 0
-110 -280 0
-106 -366 0
-107 -367 0
-108 -368 0
-109 -369 0
-110 -370 0
-106 -421 0
-107 -422 0
-108 -423 0
-109 -424 0
-110 -425 0
-111 -191 0
-112 -192 0
-113 -193 0
-114 -194 0
-115 -195 0
-111 -241 0
-112 -242 0
-113 -243 0
-114 -244 0
-115 -245 0
-111 -266 0
-112 -267 0
-113 -268 0
-114 -269 0
-115 -270 0
-111 -306 0
-112 -307 0
-113 -308 0
-114 -309 0
-115 -310 0
-111 -326 0
-112 -327 0
-113 -328 0
-114 -329 0
-115 -330 0
-111 -341 0
-112 -342 0
-113 -343 0
-114 -344 0
-115 -345 0
-111 -421 0
-112 -422 0
-113 -423 0
-114 -424 0
-115 -425 0
-111 -441 0
-112 -442 0
-113 -443 0
-114 -444 0
-115 -445 0
-111 -471 0
-112 -472 0
-113 -473 0
-114 -474 0
-115 -475 0
-111 -476 0
-112 -477 0
-113 -478 0
-114 -479 0
-115 -480 0
-111 -491 0
-112 -492 0
-113 -493 0
-114 -494 0
-115 -495 0
-116 -176 0
-117 -177 0
-118 -178 0
-119 -179 0
-120 -180 0
-116 -246 0
-117 -247 0
-118 -248 0
-119 -249 0
-120 -250 0
-116 -361 0
-117 -362 0
-118 -363 0
-119 -364 0
-120 -365 0
-116 -386 0
-117 -387 0
-118 -388 0
-119 -389 0
-120 -390 0
-116 -406 0
-117 -407 0
-118 -408 0
-119 -409 0
-120 -410 0
-121 -166 0
-122 -167 0
-123 -168 0
-124 -169 0
-125 -170 0
-121 -176 0
-122 -177 0
-123 -178 0
-124 -179 0
-125 -180 0
-121 -221 0
-122 -222 0
-123 -223 0
-124 -224 0
-125 -225 0
-121 -251 0
-122 -252 0
-123 -253 0
-124 -254 0
-125 -255 0
-121 -286 0
-122 -287 0
-123 -288 0
-124 -289 0
-125 -290 0
-121 -311 0
-122 -312 0
-123 -313 0
-124 -314 0
-125 -315 0
-121 -456 0
-122 -457 0
-123 -458 0
-124 -459 0
-125 -460 0
-126 -291 0
-127 -292 0
-128 -293 0
-129 -294 0
-130 -295 0
-126 -361 0
-127 -362 0
-128 -363 0
-129 -364 0
-130 -365 0
-126 -471 0
-127 -472 0
-128 -473 0
-129 -474 0
-130 -475 0
-131 -171 0
-132 -172 0
-133 -173 0
-134 -174 0
-135 -175 0
-131 -206 0
-132 -207 0
-133 -208 0
-134 -209 0
-135 -210 0
-131 -356 0
-132 -357 0
-133 -358 0
-134 -359 0
-135 -360 0
-131 -431 0
-132 -432 0
-133 -433 0
-134 -434 0
-135 -435 0
-136 -196 0
-137 -197 0
-138 -198 0
-139 -199 0
-140 -200 0
-136 -211 0
-137 -212 0
-138 -213 0
-139 -214 0
-140 -215 0
-136 -261 0
-137 -262 0
-138 -263 0
-139 -264 0
-140 -265 0
-136 -331 0
-137 -332 0
-138 -333 0
-139 -334 0
-140 -335 0
-136 -356 0
-137 -357 0
-138 -358 0
-139 -359 0
-140 -360 0
-136 -396 0
-137 -397 0
-138 -398 0
-139 -399 0
-140 -400 0
-141 -306 0
-142 -307 0
-143 -308 0
-144 -309 0
-145 -310 0
-141 -321 0
-142 -322 0
-143 -323 0
-144 -324 0
-145 -325 0
-141 -371 0
-142 -372 0
-143 -373 0
-144 -374 0
-145 -375 0
-141 -406 0
-142 -407 0
-143 -408 0
-144 -409 0
-145 -410 0
-141 -426 0
-142 -427 0
-143 -428 0
-144 -429 0
-145 -430 0
-141 -436 0
-142 -437 0
-143 -438 0
-144 -439 0
-145 -440 0
-141 -441 0
-142 -442 0
-143 -443 0
-144 -444 0
-145 -445 0
-141 -481 0
-142 -482 0
-143 -483 0
-144 -484 0
-145 -485 0
-146 -171 0
-147 -172 0
-148 -173 0
-149 -174 0
-150 -175 0
-146 -176 0
-147 -177 0
-148 -178 0
-149 -179 0
-150 -180 0
-146 -181 0
-147 -182 0
-148 -183 0
-149 -184 0
-150 -185 0
-146 -186 0
-147 -187 0
-148 -188 0
-149 -189 0
-150 -190 0
-146 -216 0
-147 -217 0
-148 -218 0
-149 -219 0
-150 -220 0
-146 -251 0
-147 -252 0
-148 -253 0
-149 -254 0
-150 -255 0
-146 -261 0
-147 -262 0
-148 -263 0
-149 -264 0
-150 -265 0
-146 -391 0
-147 -392 0
-148 -393 0
-149 -394 0
-150 -395 0
-146 -411 0
-147 -412 0
-148 -413 0
-149 -414 0
-150 -415 0
-146 -436 0
-147 -437 0
-148 -438 0
-149 -439 0
-150 -440 0
-146 -446 0
-147 -447 0
-148 -448 0
-149 -449 0
-150 -450 0
-146 -476 0
-147 -477 0
-148 -478 0
-149 -479 0
-150 -480 0
-151 -306 0
-152 -307 0
-153 -308 0
-154 -309 0
-155 -310 0
-151 -311 0
-152 -312 0
-153 -313 0
-154 -314 0
-155 -315 0
-151 -331 0
-152 -332 0
-153 -333 0
-154 -334 0
-155 -335 0
-151 -381 0
-152 -382 0
-153 -383 0
-154 -384 0
-155 -385 0
-151 -486 0
-152 -487 0
-153 -488 0
-154 -489 0
-155 -490 0
-156 -236 0
-157 -237 0
-158 -238 0
-159 -239 0
-160 -240 0
-156 -276 0
-157 -277 0
-158 -278 0
-159 -279 0
-160 -280 0
-156 -441 0
-157 -442 0
-158 -443 0
-159 -444 0
-160 -445 0
-156 -496 0
-157 -497 0
-158 -498 0
-159 -499 0
-160 -500 0
-161 -236 0
-162 -237 0
-163 -238 0
-164 -239 0
-165 -240 0
-161 -296 0
-162 -297 0
-163 -298 0
-164 -299 0
-165 -300 0
-161 -326 0
-162 -327 0
-163 -328 0
-164 -329 0
-165 -330 0
-161 -496 0
-162 -497 0
-163 -498 0
-164 -499 0
-165 -500 0
-166 -246 0
-167 -247 0
-168 -248 0
-169 -249 0
-170 -250 0
-166 -286 0
-167 -287 0
-168 -288 0
-169 -289 0
-170 -290 0
-166 -391 0
-167 -392 0
-168 -393 0
-169 -394 0
-170 -395 0
-171 -211 0
-172 -212 0
-173 -213 0
-174 -214 0
-175 -215 0
-171 -241 0
-172 -242 0
-173 -243 0
-174 -244 0
-175 -245 0
-171 -316 0
-172 -317 0
-173 -318 0
-174 -319 0
-175 -320 0
-171 -356 0
-172 -357 0
-173 -358 0
-174 -359 0
-175 -360 0
-171 -371 0
-172 -372 0
-173 -373 0
-174 -374 0
-175 -375 0
-176 -356 0
-177 -357 0
-178 -358 0
-179 -359 0
-180 -360 0
-176 -426 0
-177 -427 0
-178 -428 0
-179 -429 0
-180 -430 0
-181 -221 0
-182 -222 0
-183 -223 0
-184 -224 0
-185 -225 0
-181 -286 0
-182 -287 0
-183 -288 0
-184 -289 0
-185 -290 0
-181 -411 0
-182 -412 0
-183 -413 0
-184 -414 0
-185 -415 0
-181 -441 0
-182 -442 0
-183 -443 0
-184 -444 0
-185 -445 0
-181 -496 0
-182 -497 0
-183 -498 0
-184 -499 0
-185 -500 0
-186 -261 0
-187 -262 0
-188 -263 0
-189 -264 0
-190 -265 0
-186 -306 0
-187 -307 0
-188 -308 0
-189 -309 0
-190 -310 0
-186 -371 0
-187 -372 0
-188 -373 0
-189 -374 0
-190 -375 0
-186 -376 0
-187 -377 0
-188 -378 0
-189 -379 0
-190 -380 0
-186 -466 0
-187 -467 0
-188 -468 0
-189 -469 0
-190 -470 0
-191 -426 0
-192 -427 0
-193 -428 0
-194 -429 0
-195 -430 0
-191 -496 0
-192 -497 0
-193 -498 0
-194 -499 0
-195 -500 0
-196 -291 0
-197 -292 0
-198 -293 0
-199 -294 0
-200 -295 0
-196 -296 0
-197 -297 0
-198 -298 0
-199 -299 0
-200 -300 0
-196 -321 0
-197 -322 0
-198 -323 0
-199 -324 0
-200 -325 0
-196 -371 0
-197 -372 0
-198 -373 0
-199 -374 0
-200 -375 0
-196 -381 0
-197 -382 0
-198 -383 0
-199 -384 0
-200 -385 0
-196 -451 0
-197 -452 0
-198 -453 0
-199 -454 0
-200 -455 0
-201 -316 0
-202 -317 0
-203 -318 0
-204 -319 0
-205 -320 0
-201 -351 0
-202 -352 0
-203 -353 0
-204 -354 0
-205 -355 0
-201 -376 0
-202 -377 0
-203 -378 0
-204 -379 0
-205 -380 0
-201 -446 0
-202 -447 0
-203 -448 0
-204 -449 0
-205 -450 0
-206 -266 0
-207 -267 0
-208 -268 0
-209 -269 0
-210 -270 0
-206 -456 0
-207 -457 0
-208 -458 0
-209 -459 0
-210 -460 0
-211 -246 0
-212 -247 0
-213 -248 0
-214 -249 0
-215 -250 0
-211 -291 0
-212 -292 0
-213 -293 0
-214 -294 0
-215 -295 0
-211 -491 0
-212 -492 0
-213 -493 0
-214 -494 0
-215 -495 0
-216 -261 0
-217 -262 0
-218 -263 0
-219 -264 0
-220 -265 0
-216 -281 0
-217 -282 0
-218 -283 0
-219 -284 0
-220 -285 0
-216 -311 0
-217 -312 0
-218 -313 0
-219 -314 0
-220 -315 0
-216 -321 0
-217 -322 0
-218 -323 0
-219 -324 0
-220 -325 0
-216 -331 0
-217 -332 0
-218 -333 0
-219 -334 0
-220 -335 0
-216 -406 0
-217 -407 0
-218 -408 0
-219 -409 0
-220 -410 0
-216 -411 0
-217 -412 0
-218 -413 0
-219 -414 0
-220 -415 0
-221 -316 0
-222 -317 0
-223 -318 0
-224 -319 0
-225 -320 0
-221 -436 0
-222 -437 0
-223 -438 0
-224 -439 0
-225 -440 0
-221 -481 0
-222 -482 0
-223 -483 0
-224 -484 0
-225 -485 0
-226 -281 0
-227 -282 0
-228 -283 0
-229 -284 0
-230 -285 0
-226 -286 0
-227 -287 0
-228 -288 0
-229 -289 0
-230 -290 0
-226 -436 0
-227 -437 0
-228 -438 0
-229 -439 0
-230 -440 0
-231 -301 0
-232 -302 0
-233 -303 0
-234 -304 0
-235 -305 0
-231 -421 0
-232 -422 0
-233 -423 0
-234 -424 0
-235 -425 0
-231 -431 0
-232 -432 0
-233 -433 0
-234 -434 0
-235 -435 0
-231 -476 0
-232 -477 0
-233 -478 0
-234 -479 0
-235 -480 0
-236 -306 0
-237 -307 0
-238 -308 0
-239 -309 0
-240 -310 0
-236 -406 0
-237 -407 0
-238 -408 0
-239 -409 0
-240 -410 0
-236 -421 0
-237 -422 0
-238 -423 0
-239 -424 0
-240 -425 0
-241 -271 0
-242 -272 0
-243 -273 0
-244 -274 0
-245 -275 0
-241 -276 0
-242 -277 0
-243 -278 0
-244 -279 0
-245 -280 0
-241 -351 0
-242 -352 0
-243 -353 0
-244 -354 0
-245 -355 0
-241 -491 0
-242 -492 0
-243 -493 0
-244 -494 0
-245 -495 0
-246 -296 0
-247 -297 0
-248 -298 0
-249 -299 0
-250 -300 0
-246 -371 0
-247 -372 0
-248 -373 0
-249 -374 0
-250 -375 0
-246 -376 0
-247 -377 0
-248 -378 0
-249 -379 0
-250 -380 0
-246 -406 0
-247 -407 0
-248 -408 0
-249 -409 0
-250 -410 0
-251 -286 0
-252 -287 0
-253 -288 0
-254 -289 0
-255 -290 0
-251 -331 0
-252 -332 0
-253 -333 0
-254 -334 0
-255 -335 0
-251 -446 0
-252 -447 0
-253 -448 0
-254 -449 0
-255 -450 0
-261 -291 0
-262 -292 0
-263 -293 0
-264 -294 0
-265 -295 0
-261 -426 0
-262 -427 0
-263 -428 0
-264 -429 0
-265 -430 0
-261 -431 0
-262 -432 0
-263 -433 0
-264 -434 0
-265 -435 0
-261 -471 0
-262 -472 0
-263 -473 0
-264 -474 0
-265 -475 0
-261 -476 0
-262 -477 0
-263 -478 0
-264 -479 0
-265 -480 0
-266 -336 0
-267 -337 0
-268 -338 0
-269 -339 0
-270 -340 0
-266 -371 0
-267 -372 0
-268 -373 0
-269 -374 0
-270 -375 0
-266 -381 0
-267 -382 0
-268 -383 0
-269 -384 0
-270 -385 0
-266 -391 0
-267 -392 0
-268 -393 0
-269 -394 0
-270 -395 0
-266 -406 0
-267 -407 0
-268 -408 0
-269 -409 0
-270 -410 0
-266 -461 0
-267 -462 0
-268 -463 0
-269 -464 0
-270 -465 0
-271 -326 0
-272 -327 0
-273 -328 0
-274 -329 0
-275 -330 0
-276 -351 0
-277 -352 0
-278 -353 0
-279 -354 0
-280 -355 0
-276 -381 0
-277 -382 0
-278 -383 0
-279 -384 0
-280 -385 0
-276 -386 0
-277 -387 0
-278 -388 0
-279 -389 0
-280 -390 0
-276 -496 0
-277 -497 0
-278 -498 0
-279 -499 0
-280 -500 0
-281 -381 0
-282 -382 0
-283 -383 0
-284 -384 0
-285 -385 0
-281 -386 0
-282 -387 0
-283 -388 0
-284 -389 0
-285 -390 0
-281 -411 0
-282 -412 0
-283 -413 0
-284 -414 0
-285 -415 0
-286 -346 0
-287 -347 0
-288 -348 0
-289 -349 0
-290 -350 0
-286 -356 0
-287 -357 0
-288 -358 0
-289 -359 0
-290 -360 0
-286 -401 0
-287 -402 0
-288 -403 0
-289 -404 0
-290 -405 0
-291 -341 0
-292 -342 0
-293 -343 0
-294 -344 0
-295 -345 0
-291 -371 0
-292 -372 0
-293 -373 0
-294 -374 0
-295 -375 0
-291 -436 0
-292 -437 0
-293 -438 0
-294 -439 0
-295 -440 0
-291 -471 0
-292 -472 0
-293 -473 0
-294 -474 0
-295 -475 0
-296 -371 0
-297 -372 0
-298 -373 0
-299 -374 0
-300 -375 0
-296 -391 0
-297 -392 0
-298 -393 0
-299 -394 0
-300 -395 0
-296 -476 0
-297 -477 0
-298 -478 0
-299 -479 0
-300 -480 0
-301 -331 0
-302 -332 0
-303 -333 0
-304 -334 0
-305 -335 0
-301 -351 0
-302 -352 0
-303 -353 0
-304 -354 0
-305 -355 0
-301 -371 0
-302 -372 0
-303 -373 0
-304 -374 0
-305 -375 0
-301 -391 0
-302 -392 0
-303 -393 0
-304 -394 0
-305 -395 0
-301 -411 0
-302 -412 0
-303 -413 0
-304 -414 0
-305 -415 0
-306 -336 0
-307 -337 0
-308 -338 0
-309 -339 0
-310 -340 0
-306 -346 0
-307 -347 0
-308 -348 0
-309 -349 0
-310 -350 0
-306 -386 0
-307 -387 0
-308 -388 0
-309 -389 0
-310 -390 0
-306 -431 0
-307 -432 0
-308 -433 0
-309 -434 0
-310 -435 0
-306 -446 0
-307 -447 0
-308 -448 0
-309 -449 0
-310 -450 0
-311 -406 0
-312 -407 0
-313 -408 0
-314 -409 0
-315 -410 0
-311 -426 0
-312 -427 0
-313 -428 0
-314 -429 0
-315 -430 0
-311 -476 0
-312 -477 0
-313 -478 0
-314 -479 0
-315 -480 0
-311 -486 0
-312 -487 0
-313 -488 0
-314 -489 0
-315 -490 0
-316 -341 0
-317 -342 0
-318 -343 0
-319 -344 0
-320 -345 0
-316 -396 0
-317 -397 0
-318 -398 0
-319 -399 0
-320 -400 0
-316 -416 0
-317 -417 0
-318 -418 0
-319 -419 0
-320 -420 0
-316 -456 0
-317 -457 0
-318 -458 0
-319 -459 0
-320 -460 0
-321 -366 0
-322 -367 0
-323 -368 0
-324 -369 0
-325 -370 0
-321 -471 0
-322 -472 0
-323 -473 0
-324 -474 0
-325 -475 0
-326 -391 0
-327 -392 0
-328 -393 0
-329 -394 0
-330 -395 0
-331 -391 0
-332 -392 0
-333 -393 0
-334 -394 0
-335 -395 0
-331 -466 0
-332 -467 0
-333 -468 0
-334 -469 0
-335 -470 0
-331 -471 0
-332 -472 0
-333 -473 0
-334 -474 0
-335 -475 0
-341 -491 0
-342 -492 0
-343 -493 0
-344 -494 0
-345 -495 0
-346 -371 0
-347 -372 0
-348 -373 0
-349 -374 0
-350 -375 0
-346 -386 0
-347 -387 0
-348 -388 0
-349 -389 0
-350 -390 0
-346 -431 0
-347 -432 0
-348 -433 0
-349 -434 0
-350 -435 0
-346 -446 0
-347 -447 0
-348 -448 0
-349 -449 0
-350 -450 0
-346 -481 0
-347 -482 0
-348 -483 0
-349 -484 0
-350 -485 0
-351 -426 0
-352 -427 0
-353 -428 0
-354 -429 0
-355 -430 0
-351 -496 0
-352 -497 0
-353 -498 0
-354 -499 0
-355 -500 0
-356 -391 0
-357 -392 0
-358 -393 0
-359 -394 0
-360 -395 0
-356 -441 0
-357 -442 0
-358 -443 0
-359 -444 0
-360 -445 0
-356 -481 0
-357 -482 0
-358 -483 0
-359 -484 0
-360 -485 0
-361 -416 0
-362 -417 0
-363 -418 0
-364 -419 0
-365 -420 0
-361 -441 0
-362 -442 0
-363 -443 0
-364 -444 0
-365 -445 0
-361 -451 0
-362 -452 0
-363 -453 0
-364 -454 0
-365 -455 0
-361 -491 0
-362 -492 0
-363 -493 0
-364 -494 0
-365 -495 0
-366 -391 0
-367 -392 0
-368 -393 0
-369 -394 0
-370 -395 0
-366 -456 0
-367 -457 0
-368 -458 0
-369 -459 0
-370 -460 0
-371 -421 0
-372 -422 0
-373 -423 0
-374 -424 0
-375 -425 0
-371 -426 0
-372 -427 0
-373 -428 0
-374 -429 0
-375 -430 0
-371 -451 0
-372 -452 0
-373 -453 0
-374 -454 0
-375 -455 0
-371 -476 0
-372 -477 0
-373 -478 0
-374 -479 0
-375 -480 0
-376 -496 0
-377 -497 0
-378 -498 0
-379 -499 0
-380 -500 0
-381 -406 0
-382 -407 0
-383 -408 0
-384 -409 0
-385 -410 0
-391 -426 0
-392 -427 0
-393 -428 0
-394 -429 0
-395 -430 0
-391 -441 0
-392 -442 0
-393 -443 0
-394 -444 0
-395 -445 0
-396 -421 0
-397 -422 0
-398 -423 0
-399 -424 0
-400 -425 0
-396 -476 0
-397 -477 0
-398 -478 0
-399 -479 0
-400 -480 0
-396 -496 0
-397 -497 0
-398 -498 0
-399 -499 0
-400 -500 0
-406 -481 0
-407 -482 0
-408 -483 0
-409 -484 0
-410 -485 0
-416 -441 0
-417 -442 0
-418 -443 0
-419 -444 0
-420 -445 0
-416 -471 0
-417 -472 0
-418 -473 0
-419 -474 0
-420 -475 0
-416 -491 0
-417 -492 0
-418 -493 0
-419 -494 0
-420 -495 0
-426 -466 0
-427 -467 0
-428 -468 0
-429 -469 0
-430 -470 0
-436 -471 0
-437 -472 0
-438 -473 0
-439 -474 0
-440 -475 0
-441 -491 0
-442 -492 0
-443 -493 0
-444 -494 0
-445 -495 0
-446 -471 0
-447 -472 0
-448 -473 0
-449 -474 0
-450 -475 0
-451 -491 0
-452 -492 0
-453 -493 0
-454 -494 0
-455 -495 0
